c DCNF-Autarky [version 0.0.1]. 
c Copyright (c) 2018-2019 Swansea University. 
c 
c Input QBF/DQBF path: Castellini18//toilet_c_06_05.3.qdimacs
c Output SAT Translation Path: /tmp/toilet_c_06_05.3.qdimacs-dcnfAutarky.dimacs
c Input Clause Count (tautology free): 936
c
c Performing E1-Autarky iteration.
c Remaining clauses count after E-Reduction: 771
c
c Performing A1-Autarky iteration.
c Running Lingeling ... 
c
c Remaining clauses count after A-Reduction: 771
c
c Input Parameter (command line, file): 
c input filename   Castellini18//toilet_c_06_05.3.qdimacs
c output filename  /tmp/toilet_c_06_05.3.qdimacs-dcnfAutarky.dimacs
c autarky level    1
c conformity level 0
c encoding type    2
c no.of var        159
c no.of clauses    936
c no.of taut cls   0
c 
c Output Parameters: 
c remaining no.of clauses  771
c
c filename pn pc autarky ntaut rpa rpe rpcdiff result
c "Castellini18//toilet_c_06_05.3.qdimacs" 159 936 "E1+A1" 0 3 121 165 "RED" 
p cnf 159 771
e 29 30 31 32 33 34 35 36 37 38 39 40 41 42 43 44 45 46 47 48 49 50 51 52 53 54 55 56 57 58 59 60 61 62 63 64 65 66 67 68 69 70 71 72 73 74 75 76 77 78 79 80 81 82 83 84 85 86 87 88 89 90 91 92 93 94 95 96 97 98 99 100 101 102 103 104 105 106 107 108 109 110 111 112 113 114 115 116 117 118 119 120 121 122 123 124 125 126 127 128 129 130 131 132 133 0
a 141 140 142 0
e 1 2 3 4 5 6 7 8 9 10 11 12 13 14 15 16 17 18 19 20 21 22 23 24 25 26 27 28 134 135 136 137 138 139 143 144 145 146 147 148 149 150 151 152 153 154 155 156 157 158 159 0
-141 -143 140 142 0
-141 -144 140 142 0
-141 -145 140 142 0
-141 140 142 146 0
-141 -147 140 142 0
-141 -148 140 142 0
-140 -142 -143 141 0
-140 -142 -144 141 0
-140 -142 141 145 0
-140 -142 -146 141 0
-140 -142 -147 141 0
-140 -142 -148 141 0
-140 -143 141 142 0
-140 141 142 144 0
-140 -145 141 142 0
-140 -146 141 142 0
-140 -147 141 142 0
-140 -148 141 142 0
-142 140 141 143 0
-142 -144 140 141 0
-142 -145 140 141 0
-142 -146 140 141 0
-142 -147 140 141 0
-142 -148 140 141 0
-143 140 141 142 0
-144 140 141 142 0
-145 140 141 142 0
-146 140 141 142 0
-147 140 141 142 0
140 141 142 148 0
-141 -142 -143 140 0
-141 -142 -144 140 0
-141 -142 -145 140 0
-141 -142 -146 140 0
-141 -142 140 147 0
-141 -142 -148 140 0
-149 0
-150 0
-151 0
-152 0
-153 0
-154 0
-155 0
-156 0
-157 0
-158 0
-159 0
-29 -159 0
-29 -153 0
-3 -30 0
-1 -30 0
-32 -154 0
-32 -159 0
-6 -33 0
-3 -33 0
-35 -155 0
-35 -159 0
-9 -36 0
-3 -36 0
-38 -156 0
-38 -159 0
-12 -39 0
-3 -39 0
-41 -157 0
-41 -159 0
-15 -42 0
-3 -42 0
-44 -158 0
-44 -159 0
-18 -46 0
-3 -46 0
-50 -149 0
-50 -153 0
-21 -51 0
-1 -51 0
-53 -149 0
-53 -154 0
-21 -54 0
-6 -54 0
-56 -149 0
-56 -155 0
-21 -57 0
-9 -57 0
-59 -149 0
-59 -156 0
-21 -60 0
-12 -60 0
-62 -149 0
-62 -157 0
-21 -63 0
-15 -63 0
-65 -149 0
-65 -158 0
-21 -67 0
-18 -67 0
-71 -150 0
-71 -153 0
-23 -72 0
-1 -72 0
-74 -150 0
-74 -154 0
-23 -75 0
-6 -75 0
-77 -150 0
-77 -155 0
-23 -78 0
-9 -78 0
-80 -150 0
-80 -156 0
-23 -81 0
-12 -81 0
-83 -150 0
-83 -157 0
-23 -84 0
-15 -84 0
-86 -150 0
-86 -158 0
-23 -88 0
-18 -88 0
-92 -151 0
-92 -153 0
-25 -93 0
-1 -93 0
-95 -151 0
-95 -154 0
-25 -96 0
-6 -96 0
-98 -151 0
-98 -155 0
-25 -99 0
-9 -99 0
-101 -151 0
-101 -156 0
-25 -102 0
-12 -102 0
-104 -151 0
-104 -157 0
-25 -105 0
-15 -105 0
-107 -151 0
-107 -158 0
-25 -109 0
-18 -109 0
-113 -152 0
-113 -153 0
-27 -114 0
-1 -114 0
-116 -152 0
-116 -154 0
-27 -117 0
-6 -117 0
-119 -152 0
-119 -155 0
-27 -120 0
-9 -120 0
-122 -152 0
-122 -156 0
-27 -123 0
-12 -123 0
-125 -152 0
-125 -157 0
-27 -126 0
-15 -126 0
-128 -152 0
-128 -158 0
-27 -130 0
-18 -130 0
-45 159 0
-47 3 0
-66 149 0
-68 21 0
-87 150 0
-89 23 0
-108 151 0
-110 25 0
-129 152 0
-131 27 0
-29 3 0
-5 -29 0
-29 1 0
-30 4 0
-30 -134 0
-30 2 0
-32 6 0
-8 -32 0
-32 3 0
-33 7 0
-33 -135 0
-33 4 0
-35 9 0
-11 -35 0
-35 3 0
-36 10 0
-36 -136 0
-36 4 0
-38 12 0
-14 -38 0
-38 3 0
-39 13 0
-39 -137 0
-39 4 0
-41 15 0
-17 -41 0
-41 3 0
-42 16 0
-42 -138 0
-42 4 0
-44 18 0
-20 -44 0
-44 3 0
-46 19 0
-46 -139 0
-46 4 0
-50 21 0
-5 -50 0
-50 1 0
-51 22 0
-51 -134 0
-51 2 0
-53 21 0
-8 -53 0
-53 6 0
-54 22 0
-54 -135 0
-54 7 0
-56 21 0
-11 -56 0
-56 9 0
-57 22 0
-57 -136 0
-57 10 0
-59 21 0
-14 -59 0
-59 12 0
-60 22 0
-60 -137 0
-60 13 0
-62 21 0
-17 -62 0
-62 15 0
-63 22 0
-63 -138 0
-63 16 0
-65 21 0
-20 -65 0
-65 18 0
-67 22 0
-67 -139 0
-67 19 0
-71 23 0
-5 -71 0
-71 1 0
-72 24 0
-72 -134 0
-72 2 0
-74 23 0
-8 -74 0
-74 6 0
-75 24 0
-75 -135 0
-75 7 0
-77 23 0
-11 -77 0
-77 9 0
-78 24 0
-78 -136 0
-78 10 0
-80 23 0
-14 -80 0
-80 12 0
-81 24 0
-81 -137 0
-81 13 0
-83 23 0
-17 -83 0
-83 15 0
-84 24 0
-84 -138 0
-84 16 0
-86 23 0
-20 -86 0
-86 18 0
-88 24 0
-88 -139 0
-88 19 0
-92 25 0
-5 -92 0
-92 1 0
-93 26 0
-93 -134 0
-93 2 0
-95 25 0
-8 -95 0
-95 6 0
-96 26 0
-96 -135 0
-96 7 0
-98 25 0
-11 -98 0
-98 9 0
-99 26 0
-99 -136 0
-99 10 0
-101 25 0
-14 -101 0
-101 12 0
-102 26 0
-102 -137 0
-102 13 0
-104 25 0
-17 -104 0
-104 15 0
-105 26 0
-105 -138 0
-105 16 0
-107 25 0
-20 -107 0
-107 18 0
-109 26 0
-109 -139 0
-109 19 0
-113 27 0
-5 -113 0
-113 1 0
-114 28 0
-114 -134 0
-114 2 0
-116 27 0
-8 -116 0
-116 6 0
-117 28 0
-117 -135 0
-117 7 0
-119 27 0
-11 -119 0
-119 9 0
-120 28 0
-120 -136 0
-120 10 0
-122 27 0
-14 -122 0
-122 12 0
-123 28 0
-123 -137 0
-123 13 0
-125 27 0
-17 -125 0
-125 15 0
-126 28 0
-126 -138 0
-126 16 0
-128 27 0
-20 -128 0
-128 18 0
-130 28 0
-130 -139 0
-130 19 0
-3 -45 0
-4 -47 0
-21 -66 0
-22 -68 0
-23 -87 0
-24 -89 0
-25 -108 0
-26 -110 0
-27 -129 0
-28 -131 0
-1 29 50 71 92 113 153 0
-2 1 30 51 72 93 114 0
-153 1 0
-1 2 0
-3 29 32 35 38 41 44 159 0
-4 3 30 33 36 39 42 46 0
-159 3 45 0
-3 4 47 0
-5 148 0
-134 5 0
-148 5 29 50 71 92 113 0
-5 30 51 72 93 114 134 0
-6 32 53 74 95 116 154 0
-7 6 33 54 75 96 117 0
-154 6 0
-6 7 0
-8 143 0
-135 8 0
-143 8 32 53 74 95 116 0
-8 33 54 75 96 117 135 0
-9 35 56 77 98 119 155 0
-10 9 36 57 78 99 120 0
-155 9 0
-9 10 0
-11 144 0
-136 11 0
-144 11 35 56 77 98 119 0
-11 36 57 78 99 120 136 0
-12 38 59 80 101 122 156 0
-13 12 39 60 81 102 123 0
-156 12 0
-12 13 0
-14 145 0
-137 14 0
-145 14 38 59 80 101 122 0
-14 39 60 81 102 123 137 0
-15 41 62 83 104 125 157 0
-16 15 42 63 84 105 126 0
-157 15 0
-15 16 0
-17 146 0
-138 17 0
-146 17 41 62 83 104 125 0
-17 42 63 84 105 126 138 0
-18 44 65 86 107 128 158 0
-19 18 46 67 88 109 130 0
-158 18 0
-18 19 0
-20 147 0
-139 20 0
-147 20 44 65 86 107 128 0
-20 46 67 88 109 130 139 0
-21 50 53 56 59 62 65 149 0
-22 21 51 54 57 60 63 67 0
-149 21 66 0
-21 22 68 0
-23 71 74 77 80 83 86 150 0
-24 23 72 75 78 81 84 88 0
-150 23 87 0
-23 24 89 0
-25 92 95 98 101 104 107 151 0
-26 25 93 96 99 102 105 109 0
-151 25 108 0
-25 26 110 0
-27 113 116 119 122 125 128 152 0
-28 27 114 117 120 123 126 130 0
-152 27 129 0
-27 28 131 0
-29 -32 0
-30 -33 0
-29 -35 0
-30 -36 0
-29 -38 0
-30 -39 0
-29 -41 0
-30 -42 0
-29 -44 0
-30 -46 0
-29 -50 0
-30 -51 0
-29 -71 0
-30 -72 0
-29 -92 0
-30 -93 0
-29 -113 0
-30 -114 0
-29 -45 0
-30 -47 0
-32 -35 0
-33 -36 0
-32 -38 0
-33 -39 0
-32 -41 0
-33 -42 0
-32 -44 0
-33 -46 0
-32 -53 0
-33 -54 0
-32 -74 0
-33 -75 0
-32 -95 0
-33 -96 0
-32 -116 0
-33 -117 0
-32 -45 0
-33 -47 0
-35 -38 0
-36 -39 0
-35 -41 0
-36 -42 0
-35 -44 0
-36 -46 0
-35 -56 0
-36 -57 0
-35 -77 0
-36 -78 0
-35 -98 0
-36 -99 0
-35 -119 0
-36 -120 0
-35 -45 0
-36 -47 0
-38 -41 0
-39 -42 0
-38 -44 0
-39 -46 0
-38 -59 0
-39 -60 0
-38 -80 0
-39 -81 0
-38 -101 0
-39 -102 0
-38 -122 0
-39 -123 0
-38 -45 0
-39 -47 0
-41 -44 0
-42 -46 0
-41 -62 0
-42 -63 0
-41 -83 0
-42 -84 0
-41 -104 0
-42 -105 0
-41 -125 0
-42 -126 0
-41 -45 0
-42 -47 0
-44 -65 0
-46 -67 0
-44 -86 0
-46 -88 0
-44 -107 0
-46 -109 0
-44 -128 0
-46 -130 0
-44 -45 0
-46 -47 0
-50 -53 0
-51 -54 0
-50 -56 0
-51 -57 0
-50 -59 0
-51 -60 0
-50 -62 0
-51 -63 0
-50 -65 0
-51 -67 0
-50 -71 0
-51 -72 0
-50 -92 0
-51 -93 0
-50 -113 0
-51 -114 0
-50 -66 0
-51 -68 0
-53 -56 0
-54 -57 0
-53 -59 0
-54 -60 0
-53 -62 0
-54 -63 0
-53 -65 0
-54 -67 0
-53 -74 0
-54 -75 0
-53 -95 0
-54 -96 0
-53 -116 0
-54 -117 0
-53 -66 0
-54 -68 0
-56 -59 0
-57 -60 0
-56 -62 0
-57 -63 0
-56 -65 0
-57 -67 0
-56 -77 0
-57 -78 0
-56 -98 0
-57 -99 0
-56 -119 0
-57 -120 0
-56 -66 0
-57 -68 0
-59 -62 0
-60 -63 0
-59 -65 0
-60 -67 0
-59 -80 0
-60 -81 0
-59 -101 0
-60 -102 0
-59 -122 0
-60 -123 0
-59 -66 0
-60 -68 0
-62 -65 0
-63 -67 0
-62 -83 0
-63 -84 0
-62 -104 0
-63 -105 0
-62 -125 0
-63 -126 0
-62 -66 0
-63 -68 0
-65 -86 0
-67 -88 0
-65 -107 0
-67 -109 0
-65 -128 0
-67 -130 0
-65 -66 0
-67 -68 0
-71 -74 0
-72 -75 0
-71 -77 0
-72 -78 0
-71 -80 0
-72 -81 0
-71 -83 0
-72 -84 0
-71 -86 0
-72 -88 0
-71 -92 0
-72 -93 0
-71 -113 0
-72 -114 0
-71 -87 0
-72 -89 0
-74 -77 0
-75 -78 0
-74 -80 0
-75 -81 0
-74 -83 0
-75 -84 0
-74 -86 0
-75 -88 0
-74 -95 0
-75 -96 0
-74 -116 0
-75 -117 0
-74 -87 0
-75 -89 0
-77 -80 0
-78 -81 0
-77 -83 0
-78 -84 0
-77 -86 0
-78 -88 0
-77 -98 0
-78 -99 0
-77 -119 0
-78 -120 0
-77 -87 0
-78 -89 0
-80 -83 0
-81 -84 0
-80 -86 0
-81 -88 0
-80 -101 0
-81 -102 0
-80 -122 0
-81 -123 0
-80 -87 0
-81 -89 0
-83 -86 0
-84 -88 0
-83 -104 0
-84 -105 0
-83 -125 0
-84 -126 0
-83 -87 0
-84 -89 0
-86 -107 0
-88 -109 0
-86 -128 0
-88 -130 0
-86 -87 0
-88 -89 0
-92 -95 0
-93 -96 0
-92 -98 0
-93 -99 0
-92 -101 0
-93 -102 0
-92 -104 0
-93 -105 0
-92 -107 0
-93 -109 0
-92 -113 0
-93 -114 0
-92 -108 0
-93 -110 0
-95 -98 0
-96 -99 0
-95 -101 0
-96 -102 0
-95 -104 0
-96 -105 0
-95 -107 0
-96 -109 0
-95 -116 0
-96 -117 0
-95 -108 0
-96 -110 0
-98 -101 0
-99 -102 0
-98 -104 0
-99 -105 0
-98 -107 0
-99 -109 0
-98 -119 0
-99 -120 0
-98 -108 0
-99 -110 0
-101 -104 0
-102 -105 0
-101 -107 0
-102 -109 0
-101 -122 0
-102 -123 0
-101 -108 0
-102 -110 0
-104 -107 0
-105 -109 0
-104 -125 0
-105 -126 0
-104 -108 0
-105 -110 0
-107 -128 0
-109 -130 0
-107 -108 0
-109 -110 0
-113 -116 0
-114 -117 0
-113 -119 0
-114 -120 0
-113 -122 0
-114 -123 0
-113 -125 0
-114 -126 0
-113 -128 0
-114 -130 0
-113 -129 0
-114 -131 0
-116 -119 0
-117 -120 0
-116 -122 0
-117 -123 0
-116 -125 0
-117 -126 0
-116 -128 0
-117 -130 0
-116 -129 0
-117 -131 0
-119 -122 0
-120 -123 0
-119 -125 0
-120 -126 0
-119 -128 0
-120 -130 0
-119 -129 0
-120 -131 0
-122 -125 0
-123 -126 0
-122 -128 0
-123 -130 0
-122 -129 0
-123 -131 0
-125 -128 0
-126 -130 0
-125 -129 0
-126 -131 0
-128 -129 0
-130 -131 0
-134 0
-135 0
-136 0
-137 0
-138 0
-139 0
